(set-info :status unsat) ; swine result
(set-logic ALL)
(declare-fun it144 () Int)
(declare-fun i1 () Int)
(declare-fun it10 () Int)
(declare-fun it2141 () Int)
(declare-fun it2142 () Int)
(declare-fun it2143 () Int)
(declare-fun it2144 () Int)
(declare-fun it2145 () Int)
(declare-fun it6 () Int)
(declare-fun it2146 () Int)
(declare-fun it192 () Int)
(declare-fun it15 () Int)
(declare-fun it2150 () Int)
(declare-fun it2151 () Int)
(declare-fun it2152 () Int)
(declare-fun it2153 () Int)
(declare-fun it2154 () Int)
(declare-fun it11 () Int)
(declare-fun it2155 () Int)
(declare-fun it20 () Int)
(declare-fun it2168 () Int)
(declare-fun it2169 () Int)
(declare-fun it2170 () Int)
(declare-fun it2171 () Int)
(declare-fun it2172 () Int)
(declare-fun it17 () Int)
(declare-fun it2173 () Int)
(declare-fun it16 () Int)
(declare-fun it25 () Int)
(declare-fun it223 () Int)
(declare-fun it2177 () Int)
(declare-fun it2178 () Int)
(declare-fun it2179 () Int)
(declare-fun it2180 () Int)
(declare-fun it22 () Int)
(declare-fun it2181 () Int)
(declare-fun it2182 () Int)
(declare-fun it21 () Int)
(declare-fun it30 () Int)
(declare-fun it2196 () Int)
(declare-fun it2197 () Int)
(declare-fun it2198 () Int)
(declare-fun it2199 () Int)
(declare-fun it2200 () Int)
(declare-fun it27 () Int)
(declare-fun it2201 () Int)
(declare-fun it26 () Int)
(declare-fun it255 () Int)
(declare-fun it35 () Int)
(declare-fun it2251 () Int)
(declare-fun it2252 () Int)
(declare-fun it2253 () Int)
(declare-fun it2254 () Int)
(declare-fun it2255 () Int)
(declare-fun it32 () Int)
(declare-fun it31 () Int)
(declare-fun it2256 () Int)
(declare-fun it49 () Int)
(declare-fun it50 () Int)
(declare-fun it47 () Int)
(declare-fun it2307 () Int)
(declare-fun it2308 () Int)
(declare-fun it2309 () Int)
(declare-fun it2310 () Int)
(declare-fun it2311 () Int)
(declare-fun it2312 () Int)
(declare-fun it90 () Int)
(declare-fun it2316 () Int)
(declare-fun it2317 () Int)
(declare-fun it2318 () Int)
(declare-fun it2319 () Int)
(declare-fun it2320 () Int)
(declare-fun it2321 () Int)
(declare-fun it140 () Int)
(declare-fun it732 () Int)
(declare-fun it2407 () Int)
(declare-fun it2408 () Int)
(declare-fun it2409 () Int)
(declare-fun it2410 () Int)
(declare-fun it2411 () Int)
(declare-fun it2412 () Int)
(declare-fun it2414 () Int)
(declare-fun it375 () Int)
(declare-fun it127 () Int)
(declare-fun it2459 () Int)
(declare-fun it2460 () Int)
(declare-fun it2461 () Int)
(declare-fun it2462 () Int)
(declare-fun it2463 () Int)
(declare-fun it2464 () Int)
(declare-fun it109 () Int)
(declare-fun it110 () Int)
(declare-fun it107 () Int)
(declare-fun it2484 () Int)
(declare-fun it2485 () Int)
(declare-fun it2486 () Int)
(declare-fun it2487 () Int)
(declare-fun it2488 () Int)
(declare-fun it2489 () Int)
(declare-fun it102 () Int)
(declare-fun it104 () Int)
(declare-fun it105 () Int)
(declare-fun it117 () Int)
(assert (and (> it10 0) (= (+ i1 (- 13)) 0) (> (+ it144 1) 0)))
(assert (= (+ it2141 (- 2)) 0))
(assert (= (+ (* it10 (- 1)) it2142) 0))
(assert (= (+ it2143 (- 2)) 0))
(assert (= it2144 0))
(assert (= (+ it2145 (* it144 (- 1))) 0))
(assert (= (+ it2146 (* it6 (- 1))) 0))
(assert (and (> it15 0)
     (>= (+ it2142 (* it15 (- 1))) 0)
     (>= (+ it2141 (- 2)) 0)
     (>= (+ (* it2141 (- 1)) 2) 0)
     (> (+ it2145 (* it2144 (- 1))) 0)
     (> (+ (* it192 (- 1)) it2145 (* it2144 (- 1)) 1) 0)
     (>= (+ it192 (- 1)) 0)
     (> (+ it2145 1) 0)
     (> it2142 0)
     (> (+ it2143 (- 1)) 0)))
(assert (= (+ (* it2141 (- 1)) it2150) 0))
(assert (= (+ it2151 (* it15 (- 1))) 0))
(assert (= (+ (+ 0 it2152) (* (exp 2 it192) (+ 0 it2143) (+ 0 (- 1))))
   (+ 0 0)))
(assert (= (+ (* it192 (- 1)) it2153 (* it2144 (- 1))) 0))
(assert (= (+ it2154 (* it2145 (- 1))) 0))
(assert (= (+ it2155 (* it11 (- 1))) 0))
(assert (and (> it20 0)
     (>= (+ it2151 (* it20 (- 1))) 0)
     (> (+ it2152 1) 0)
     (= (+ it2150 (- 2)) 0)
     (> it2151 0)
     (<= (+ it2154 (* it2153 (- 1))) 0)))
(assert (= (+ it2168 (- 3)) 0))
(assert (= (+ (* it20 (- 1)) it2169) 0))
(assert (= it2170 0))
(assert (= (+ it2171 (* it2152 (- 1))) 0))
(assert (= (+ (* it17 (- 1)) it2172) 0))
(assert (= (+ (* it16 (- 1)) it2173) 0))
(assert (let ((a!1 (> (+ (+ (* it2170 (- 1)) it2171) (* it223 (- 1)) 1) 0)))
  (and (> it25 0)
       a!1
       (> it2169 0)
       (>= (+ it223 (- 1)) 0)
       (>= (+ it2169 (* it25 (- 1))) 0)
       (> (+ (* it2170 (- 1)) it2171) 0)
       (> (+ it2171 1) 0)
       (>= (+ it2168 (- 3)) 0)
       (> (+ it2170 1) 0)
       (>= (+ (* it2168 (- 1)) 3) 0))))
(assert (= (+ it2177 (* it2168 (- 1))) 0))
(assert (= (+ it2178 (* it25 (- 1))) 0))
(assert (= (+ (* it2170 (- 1)) it2179 (* it223 (- 1))) 0))
(assert (= (+ it2180 (* it2171 (- 1))) 0))
(assert (= (+ it2181 (* it22 (- 1))) 0))
(assert (= (+ (* it21 (- 1)) it2182) 0))
(assert (and (> it30 0)
     (= (+ it2177 (- 3)) 0)
     (> it2178 0)
     (<= (+ it2180 (* it2179 (- 1))) 0)
     (<= (+ it30 (* it2178 (- 1))) 0)
     (> it2180 0)))
(assert (= (+ it2196 (- 4)) 0))
(assert (= (+ (* it30 (- 1)) it2197) 0))
(assert (= it2198 0))
(assert (= (+ (* it2180 (- 1)) it2199) 0))
(assert (= (+ (* it27 (- 1)) it2200) 0))
(assert (= (+ (* it26 (- 1)) it2201) 0))
(assert (and (> it35 0)
     (> (+ (* it2198 (- 1)) it2199) 0)
     (> (+ it2199 (- 1)) 0)
     (> (+ (* it2198 (- 1)) (* it255 (- 1)) it2199 1) 0)
     (>= (+ it2197 (* it35 (- 1))) 0)
     (>= (+ it255 (- 1)) 0)
     (>= (+ it2196 (- 4)) 0)
     (> it2197 0)
     (>= (+ (* it2196 (- 1)) 4) 0)))
(assert (= (+ it2251 (* it2196 (- 1))) 0))
(assert (= (+ it2252 (* it35 (- 1))) 0))
(assert (= (+ (* it2198 (- 1)) (* it255 (- 1)) it2253) 0))
(assert (= (+ (* it2199 (- 1)) it2254) 0))
(assert (= (+ (* it32 (- 1)) it2255) 0))
(assert (= (+ it2256 (* it31 (- 1))) 0))
(assert (and (> it47 0)
     (> it49 0)
     (> it50 0)
     (<= (+ (* it2252 (- 1)) it47) 0)
     (> (+ it2254 (- 1)) 0)
     (<= (+ (* it2252 (- 1)) it50) 0)
     (= (+ it2251 (- 4)) 0)
     (<= (+ (* it2253 (- 1)) it2254) 0)
     (> it2252 0)
     (<= (+ (* it2252 (- 1)) it49) 0)))
(assert (= (+ it2307 (- 6)) 0))
(assert (= (+ it2308 (* it50 (- 1))) 0))
(assert (= (+ (* it49 (- 1)) it2309) 0))
(assert (= it2310 0))
(assert (= (+ it2311 (* it47 (- 1))) 0))
(assert (= (+ it2312 (* it2254 (- 1))) 0))
(assert (and (> it90 0)
     (= (+ it2307 (- 6)) 0)
     (> it2308 0)
     (<= (+ (* it2309 (- 1)) it90) 0)
     (> it2309 0)
     (<= (+ (* it2308 (- 1)) it90) 0)
     (> (+ (* it2310 (- 1)) it2312 (- 1)) 0)
     (> it2312 0)
     (<= (+ (* it2311 (- 1)) it90) 0)
     (> it2311 0)))
(assert (= (+ it2316 (- 10)) 0))
(assert (= (+ it2317 (* it90 (- 1))) 0))
(assert (= (+ (* it2310 (- 1)) it2318) 0))
(assert (= (+ it2319 (* it2310 (- 1))) 0))
(assert (= (+ (* it2310 (- 1)) it2320) 0))
(assert (= (+ it2321 (* it2312 (- 1))) 0))
(assert (and (> it140 0)
     (> (+ it2321 (- 1)) 0)
     (> (+ it2321 (* it2318 (- 1))) 0)
     (> (+ it2321 1) 0)
     (>= (+ it2316 (- 10)) 0)
     (> (+ it2318 1) 0)
     (> (+ (* it2319 (- 1)) it2321) 0)
     (> it2317 0)
     (>= (+ (* it2316 (- 1)) 10) 0)
     (>= (+ (* it2319 (- 1)) it2320) 0)
     (> (+ (* it2319 (- 1)) (* it732 (- 1)) it2321 1) 0)
     (>= (+ it732 (- 1)) 0)
     (>= (+ it2319 (* it2320 (- 1))) 0)
     (>= (+ (* it140 (- 1)) it2317) 0)
     (>= (+ it2317 (- 1)) 0)))
(assert (= (+ (* it2316 (- 1)) it2407) 0))
(assert (= (+ (* it140 (- 1)) it2408) 0))
(assert (= (+ it2409 (* it2318 (- 1))) 0))
(assert (= (+ (* it2319 (- 1)) (* it732 (- 1)) it2410) 0))
(assert (= (+ (* it2319 (- 1)) it2411 (* it732 (- 1))) 0))
(assert (= (+ it2412 (* it2321 (- 1))) 0))
(assert (let ((a!1 (> (+ (+ it127 (* it2410 (- 1))) (* it375 (- 1)) 1) 0)))
  (and (> (+ it127 1) 0)
       (> (+ it127 (- 1)) 0)
       (> (+ it127 (* it2409 (- 1))) 0)
       (> it2414 0)
       (>= (+ it2411 (* it2410 (- 1))) 0)
       a!1
       (> (+ it127 (* it2410 (- 1))) 0)
       (> (+ it2412 (* it2410 (- 1))) 0)
       (> (+ it2412 (- 1)) 0)
       (>= (+ (* it2411 (- 1)) it2410) 0)
       (> it2408 0)
       (> (+ it2412 (* it2409 (- 1))) 0)
       (>= (+ it2407 (- 10)) 0)
       (> (+ it2409 1) 0)
       (>= (+ it375 (- 1)) 0)
       (>= (+ it2408 (- 1)) 0)
       (>= (+ (* it2414 (- 1)) it2408) 0)
       (>= (+ (* it2407 (- 1)) 10) 0))))
(assert (= (+ it2459 (* it2407 (- 1))) 0))
(assert (= (+ (* it2414 (- 1)) it2460) 0))
(assert (= (+ (* it2409 (- 1)) it2461) 0))
(assert (= (+ (* it2410 (- 1)) it2462 (* it375 (- 1))) 0))
(assert (= (+ it2463 (* it2410 (- 1)) (* it375 (- 1))) 0))
(assert (= (+ (* it127 (- 1)) it2464) 0))
(assert (and (> it107 0)
     (> it110 0)
     (> it109 0)
     (<= (+ (* it2460 (- 1)) it107) 0)
     (> (+ it2464 (* it2462 (- 1))) 0)
     (> (+ it2461 1) 0)
     (> (+ it2464 (* it2461 (- 1))) 0)
     (> (+ it2464 (- 1)) 0)
     (= (+ it2459 (- 10)) 0)
     (> it2460 0)
     (<= (+ it110 (* it2460 (- 1))) 0)
     (<= (+ (* it2460 (- 1)) it109) 0)
     (= (+ (* it2463 (- 1)) it2462) 0)))
(assert (= (+ it2484 (- 6)) 0))
(assert (= (+ (* it110 (- 1)) it2485) 0))
(assert (= (+ it2486 (* it109 (- 1))) 0))
(assert (= (+ it2487 (* it2461 (- 1)) (- 1)) 0))
(assert (= (+ it2488 (* it107 (- 1))) 0))
(assert (= (+ (* it2464 (- 1)) it2489) 0))
(assert (let ((a!1 (>= (+ (+ it117 (* it2487 (- 1))) (- 1)) 0))
      (a!2 (>= (+ (+ it117 (* it2487 (- 1))) (- 2)) 0))
      (a!3 (> (+ (+ (* it2487 (- 1)) it2489) (- 1)) 0)))
  (and (> it105 0)
       (> it104 0)
       (> it102 0)
       (> (+ it117 1) 0)
       (> it2488 0)
       (<= (+ it2488 (* it102 (- 1))) 0)
       (> (+ it117 (* it2487 (- 1))) 0)
       (>= (+ it2486 (* it105 (- 1))) 0)
       (>= (+ it2488 (* it105 (- 1))) 0)
       a!1
       (>= (+ it2486 (* it104 (- 1))) 0)
       (> (+ it2487 1) 0)
       (>= (+ it2485 (- 1)) 0)
       (>= (+ (* it105 (- 1)) it2485) 0)
       (>= (+ (* it104 (- 1)) it2485) 0)
       (<= (+ (* it117 (- 1)) it2489) 0)
       (= (+ (* it117 (- 1)) it2489) 0)
       (>= (+ it2486 (* it102 (- 1))) 0)
       (<= (+ it2486 (* it104 (- 1))) 0)
       (>= (+ it2484 (- 6)) 0)
       (>= (+ (* it2484 (- 1)) 6) 0)
       (>= (+ (* it102 (- 1)) it2485) 0)
       (>= (+ it2486 (- 1)) 0)
       a!2
       (>= (+ it2488 (- 1)) 0)
       (> (+ (* it2487 (- 1)) it2489) 0)
       a!3
       (> (+ it2489 (- 1)) 0)
       (= (- 1) 0)
       (> (+ it117 (- 1)) 0)
       (> it2486 0)
       (= 0 0)
       (> it2489 0)
       (<= (+ (* it105 (- 1)) it2485) 0)
       (>= (+ it2488 (* it104 (- 1))) 0)
       (>= (+ it2488 (* it102 (- 1))) 0)
       (> it2485 0))))
(check-sat)
